ilp_joint/output/chemical change_ilp.lp
Maximize
  4.5359248575792542e-04 Z_384_0_0 + 0.0595604792155201 Z_384_0_1
   + 0.2650353916380075 Z_384_0_2 + 0.0110213956916412 Z_384_0_3
   + 0.0151290527981315 Z_283_0_0 + 0.0475036767966203 Z_283_0_1
   + 0.00993589742130311 Z_283_0_2 + 0.0083687938780544 Z_283_0_3
   + 0.00225030383202959 Z_208_0_0 + 0.011719647106638 Z_208_0_1
   + 0.7935090059180085 Z_208_0_2 + 0.0153451201477929 Z_208_0_3
   + 0.4125224286895653 Z_208_2_0 + 0.1308294063919527 Z_208_2_1
   + 0.017061252271085 Z_208_2_2 + 0.0732081820758512 Z_208_2_3
   + 0.00225030383202959 Z_208_1_0 + 0.011719647106638 Z_208_1_1
   + 0.7935090059180085 Z_208_1_2 + 0.0153451201477929 Z_208_1_3 + [
   2.16263e-05 Z_384_0_0 * Z_208_0_0 + 2.16263e-05 Z_384_0_0 * Z_208_1_0
   + 2.16263e-05 Z_384_0_1 * Z_208_0_1 + 2.16263e-05 Z_384_0_1 * Z_208_1_1
   + 2.16263e-05 Z_384_0_2 * Z_208_0_2 + 2.16263e-05 Z_384_0_2 * Z_208_1_2
   + 2.16263e-05 Z_384_0_3 * Z_208_0_3 + 2.16263e-05 Z_384_0_3 * Z_208_1_3
   ] / 2 
Subject To
 constraint1_3840: Z_384_0_0 + Z_384_0_1 + Z_384_0_2 + Z_384_0_3 <= 1
 constraint1_2830: Z_283_0_0 + Z_283_0_1 + Z_283_0_2 + Z_283_0_3 <= 1
 constraint1_2080: Z_208_0_0 + Z_208_0_1 + Z_208_0_2 + Z_208_0_3 <= 1
 constraint1_2082: Z_208_2_0 + Z_208_2_1 + Z_208_2_2 + Z_208_2_3 <= 1
 constraint1_2081: Z_208_1_0 + Z_208_1_1 + Z_208_1_2 + Z_208_1_3 <= 1
 constraint2_3840: Z_384_0_0 <= 1
 constraint2_3841: Z_384_0_1 <= 1
 constraint2_3842: Z_384_0_2 <= 1
 constraint2_3843: Z_384_0_3 <= 1
 constraint2_2830: Z_283_0_0 <= 1
 constraint2_2831: Z_283_0_1 <= 1
 constraint2_2832: Z_283_0_2 <= 1
 constraint2_2833: Z_283_0_3 <= 1
 constraint2_2080: Z_208_0_0 + Z_208_2_0 + Z_208_1_0 <= 1
 constraint2_2081: Z_208_0_1 + Z_208_2_1 + Z_208_1_1 <= 1
 constraint2_2082: Z_208_0_2 + Z_208_2_2 + Z_208_1_2 <= 1
 constraint2_2083: Z_208_0_3 + Z_208_2_3 + Z_208_1_3 <= 1
Bounds
Binaries
 Z_384_0_0 Z_384_0_1 Z_384_0_2 Z_384_0_3 Z_283_0_0 Z_283_0_1 Z_283_0_2
 Z_283_0_3 Z_208_0_0 Z_208_0_1 Z_208_0_2 Z_208_0_3 Z_208_2_0 Z_208_2_1
 Z_208_2_2 Z_208_2_3 Z_208_1_0 Z_208_1_1 Z_208_1_2 Z_208_1_3
End
