ilp_joint/output/chemical change_ilp.mps
NAME chemical change_srl_ilp
* Max problem is converted into Min one
ROWS
 N  OBJ
 L  constraint1_1580
 L  constraint1_1460
 L  constraint1_7303
 L  constraint1_7300
 L  constraint1_7301
 L  constraint1_7302
 L  constraint1_7304
 L  constraint1_4840
 L  constraint1_4842
 L  constraint1_4110
 L  constraint1_4116
 L  constraint1_4111
 L  constraint1_7090
 L  constraint1_7091
 L  constraint2_1580
 L  constraint2_1581
 L  constraint2_1582
 L  constraint2_1583
 L  constraint2_2970
 L  constraint2_2971
 L  constraint2_2972
 L  constraint2_2973
 L  constraint2_1460
 L  constraint2_1461
 L  constraint2_1462
 L  constraint2_1463
 L  constraint2_7300
 L  constraint2_7301
 L  constraint2_7302
 L  constraint2_7303
 L  constraint2_3760
 L  constraint2_3761
 L  constraint2_3762
 L  constraint2_3763
 L  constraint2_4840
 L  constraint2_4841
 L  constraint2_4842
 L  constraint2_4843
 L  constraint2_1930
 L  constraint2_1931
 L  constraint2_1932
 L  constraint2_1933
 L  constraint2_4110
 L  constraint2_4111
 L  constraint2_4112
 L  constraint2_4113
 L  constraint2_7090
 L  constraint2_7091
 L  constraint2_7092
 L  constraint2_7093
COLUMNS
    MARKER    'MARKER'                 'INTORG'
    Z_158_0_0  OBJ       -1.3425014343012310e-04
    Z_158_0_0  constraint1_1580  1
    Z_158_0_0  constraint2_1580  1
    Z_158_0_1  OBJ       -3.3984723675966909e-02
    Z_158_0_1  constraint1_1580  1
    Z_158_0_1  constraint2_1581  1
    Z_158_0_2  OBJ       -8.6323868043724050e-01
    Z_158_0_2  constraint1_1580  1
    Z_158_0_2  constraint2_1582  1
    Z_158_0_3  OBJ       -1.1337796241375540e-03
    Z_158_0_3  constraint1_1580  1
    Z_158_0_3  constraint2_1583  1
    Z_158_0_4  OBJ       -1.5085661192250554e-03
    Z_158_0_4  constraint1_1580  1
    Z_146_0_0  OBJ       -1.6786155825182773e-02
    Z_146_0_0  constraint1_1460  1
    Z_146_0_0  constraint2_1460  1
    Z_146_0_1  OBJ       -2.2243156877517763e-02
    Z_146_0_1  constraint1_1460  1
    Z_146_0_1  constraint2_1461  1
    Z_146_0_2  OBJ       -2.5227949660245698e-02
    Z_146_0_2  constraint1_1460  1
    Z_146_0_2  constraint2_1462  1
    Z_146_0_3  OBJ       -1.1017771011509411e-03
    Z_146_0_3  constraint1_1460  1
    Z_146_0_3  constraint2_1463  1
    Z_146_0_4  OBJ       -8.3464096053590286e-01
    Z_146_0_4  constraint1_1460  1
    Z_730_3_0  OBJ       -1.9037560638303357e-02
    Z_730_3_0  constraint1_7303  1
    Z_730_3_0  constraint2_7300  1
    Z_730_3_1  OBJ       -3.8781646077613529e-03
    Z_730_3_1  constraint1_7303  1
    Z_730_3_1  constraint2_7301  1
    Z_730_3_2  OBJ       -6.3839563220363979e-02
    Z_730_3_2  constraint1_7303  1
    Z_730_3_2  constraint2_7302  1
    Z_730_3_3  OBJ       -1.1630140802745844e-02
    Z_730_3_3  constraint1_7303  1
    Z_730_3_3  constraint2_7303  1
    Z_730_3_4  OBJ       -8.0161457073082554e-01
    Z_730_3_4  constraint1_7303  1
    Z_730_0_0  OBJ       -2.8415831510453780e-03
    Z_730_0_0  constraint1_7300  1
    Z_730_0_0  constraint2_7300  1
    Z_730_0_1  OBJ       -1.1698892362196436e-03
    Z_730_0_1  constraint1_7300  1
    Z_730_0_1  constraint2_7301  1
    Z_730_0_2  OBJ       -2.1879808829724154e-01
    Z_730_0_2  constraint1_7300  1
    Z_730_0_2  constraint2_7302  1
    Z_730_0_3  OBJ       -3.8429084728634393e-03
    Z_730_0_3  constraint1_7300  1
    Z_730_0_3  constraint2_7303  1
    Z_730_0_4  OBJ       -6.7334753084262999e-01
    Z_730_0_4  constraint1_7300  1
    Z_730_1_0  OBJ       -2.8415831510453780e-03
    Z_730_1_0  constraint1_7301  1
    Z_730_1_0  constraint2_7300  1
    Z_730_1_1  OBJ       -1.1698892362196436e-03
    Z_730_1_1  constraint1_7301  1
    Z_730_1_1  constraint2_7301  1
    Z_730_1_2  OBJ       -2.1879808829724154e-01
    Z_730_1_2  constraint1_7301  1
    Z_730_1_2  constraint2_7302  1
    Z_730_1_3  OBJ       -3.8429084728634393e-03
    Z_730_1_3  constraint1_7301  1
    Z_730_1_3  constraint2_7303  1
    Z_730_1_4  OBJ       -6.7334753084262999e-01
    Z_730_1_4  constraint1_7301  1
    Z_730_2_0  OBJ       -1.5495788046775824e-02
    Z_730_2_0  constraint1_7302  1
    Z_730_2_0  constraint2_7300  1
    Z_730_2_1  OBJ       -4.6784578411482050e-02
    Z_730_2_1  constraint1_7302  1
    Z_730_2_1  constraint2_7301  1
    Z_730_2_2  OBJ       -4.6735210979325187e-01
    Z_730_2_2  constraint1_7302  1
    Z_730_2_2  constraint2_7302  1
    Z_730_2_3  OBJ       -3.4431969745003254e-03
    Z_730_2_3  constraint1_7302  1
    Z_730_2_3  constraint2_7303  1
    Z_730_2_4  OBJ       -3.6692432677398984e-01
    Z_730_2_4  constraint1_7302  1
    Z_730_4_0  OBJ       -7.2644439756395975e-03
    Z_730_4_0  constraint1_7304  1
    Z_730_4_0  constraint2_7300  1
    Z_730_4_1  OBJ       -2.8207921237559408e-01
    Z_730_4_1  constraint1_7304  1
    Z_730_4_1  constraint2_7301  1
    Z_730_4_2  OBJ       -8.5675071770456440e-02
    Z_730_4_2  constraint1_7304  1
    Z_730_4_2  constraint2_7302  1
    Z_730_4_3  OBJ       -1.6326447098324834e-01
    Z_730_4_3  constraint1_7304  1
    Z_730_4_3  constraint2_7303  1
    Z_730_4_4  OBJ       -3.6171680089506147e-01
    Z_730_4_4  constraint1_7304  1
    Z_484_0_0  OBJ       -5.6326554899222426e-04
    Z_484_0_0  constraint1_4840  1
    Z_484_0_0  constraint2_4840  1
    Z_484_0_1  OBJ       -2.5255657126432968e-03
    Z_484_0_1  constraint1_4840  1
    Z_484_0_1  constraint2_4841  1
    Z_484_0_2  OBJ       -7.3803299023699265e-01
    Z_484_0_2  constraint1_4840  1
    Z_484_0_2  constraint2_4842  1
    Z_484_0_3  OBJ       -2.3078410409158728e-03
    Z_484_0_3  constraint1_4840  1
    Z_484_0_3  constraint2_4843  1
    Z_484_0_4  OBJ       -1.5657033746045598e-01
    Z_484_0_4  constraint1_4840  1
    Z_484_2_0  OBJ       -3.7513200537342006e-01
    Z_484_2_0  constraint1_4842  1
    Z_484_2_0  constraint2_4840  1
    Z_484_2_1  OBJ       -2.1514617433973196e-01
    Z_484_2_1  constraint1_4842  1
    Z_484_2_1  constraint2_4841  1
    Z_484_2_2  OBJ       -8.0160751361628944e-03
    Z_484_2_2  constraint1_4842  1
    Z_484_2_2  constraint2_4842  1
    Z_484_2_3  OBJ       -1.0162050974966025e-01
    Z_484_2_3  constraint1_4842  1
    Z_484_2_3  constraint2_4843  1
    Z_484_2_4  OBJ       -2.0008523540102488e-01
    Z_484_2_4  constraint1_4842  1
    Z_411_0_0  OBJ       -2.2439622104160643e-03
    Z_411_0_0  constraint1_4110  1
    Z_411_0_0  constraint2_4110  1
    Z_411_0_1  OBJ       -8.1167455852534074e-04
    Z_411_0_1  constraint1_4110  1
    Z_411_0_1  constraint2_4111  1
    Z_411_0_2  OBJ       -1.3410130085478464e-01
    Z_411_0_2  constraint1_4110  1
    Z_411_0_2  constraint2_4112  1
    Z_411_0_3  OBJ       -3.5779716126458166e-02
    Z_411_0_3  constraint1_4110  1
    Z_411_0_3  constraint2_4113  1
    Z_411_0_4  OBJ       -7.2706334624981583e-01
    Z_411_0_4  constraint1_4110  1
    Z_411_6_0  OBJ       -3.8772010524784929e-05
    Z_411_6_0  constraint1_4116  1
    Z_411_6_0  constraint2_4110  1
    Z_411_6_1  OBJ       -1.5956265245234681e-02
    Z_411_6_1  constraint1_4116  1
    Z_411_6_1  constraint2_4111  1
    Z_411_6_2  OBJ       -8.7040756927458873e-01
    Z_411_6_2  constraint1_4116  1
    Z_411_6_2  constraint2_4112  1
    Z_411_6_3  OBJ       -8.1583153635374803e-04
    Z_411_6_3  constraint1_4116  1
    Z_411_6_3  constraint2_4113  1
    Z_411_6_4  OBJ       -1.2781561933298069e-02
    Z_411_6_4  constraint1_4116  1
    Z_411_1_0  OBJ       -6.8659563539907259e-03
    Z_411_1_0  constraint1_4111  1
    Z_411_1_0  constraint2_4110  1
    Z_411_1_1  OBJ       -1.6419520647747637e-02
    Z_411_1_1  constraint1_4111  1
    Z_411_1_1  constraint2_4111  1
    Z_411_1_2  OBJ       -3.6426788306165955e-02
    Z_411_1_2  constraint1_4111  1
    Z_411_1_2  constraint2_4112  1
    Z_411_1_3  OBJ       -6.0679887940310107e-01
    Z_411_1_3  constraint1_4111  1
    Z_411_1_3  constraint2_4113  1
    Z_411_1_4  OBJ       -2.3348885528899468e-01
    Z_411_1_4  constraint1_4111  1
    Z_709_0_0  OBJ       -1.7085581796421646e-02
    Z_709_0_0  constraint1_7090  1
    Z_709_0_0  constraint2_7090  1
    Z_709_0_1  OBJ       -3.6364873158329478e-03
    Z_709_0_1  constraint1_7090  1
    Z_709_0_1  constraint2_7091  1
    Z_709_0_2  OBJ       -8.3595549856450679e-02
    Z_709_0_2  constraint1_7090  1
    Z_709_0_2  constraint2_7092  1
    Z_709_0_3  OBJ       -5.4380274125590744e-03
    Z_709_0_3  constraint1_7090  1
    Z_709_0_3  constraint2_7093  1
    Z_709_0_4  OBJ       -7.9024435361873557e-01
    Z_709_0_4  constraint1_7090  1
    Z_709_1_0  OBJ       -7.7032025735954664e-03
    Z_709_1_0  constraint1_7091  1
    Z_709_1_0  constraint2_7090  1
    Z_709_1_1  OBJ       -6.4119973111160480e-02
    Z_709_1_1  constraint1_7091  1
    Z_709_1_1  constraint2_7091  1
    Z_709_1_2  OBJ       -8.6514895034825803e-03
    Z_709_1_2  constraint1_7091  1
    Z_709_1_2  constraint2_7092  1
    Z_709_1_3  OBJ       -2.1907647955585891e-03
    Z_709_1_3  constraint1_7091  1
    Z_709_1_3  constraint2_7093  1
    Z_709_1_4  OBJ       -8.1733457001620291e-01
    Z_709_1_4  constraint1_7091  1
    MARKER    'MARKER'                 'INTEND'
RHS
    RHS1      constraint1_1580  1
    RHS1      constraint1_1460  1
    RHS1      constraint1_7303  1
    RHS1      constraint1_7300  1
    RHS1      constraint1_7301  1
    RHS1      constraint1_7302  1
    RHS1      constraint1_7304  1
    RHS1      constraint1_4840  1
    RHS1      constraint1_4842  1
    RHS1      constraint1_4110  1
    RHS1      constraint1_4116  1
    RHS1      constraint1_4111  1
    RHS1      constraint1_7090  1
    RHS1      constraint1_7091  1
    RHS1      constraint2_1580  1
    RHS1      constraint2_1581  1
    RHS1      constraint2_1582  1
    RHS1      constraint2_1583  1
    RHS1      constraint2_2970  1
    RHS1      constraint2_2971  1
    RHS1      constraint2_2972  1
    RHS1      constraint2_2973  1
    RHS1      constraint2_1460  1
    RHS1      constraint2_1461  1
    RHS1      constraint2_1462  1
    RHS1      constraint2_1463  1
    RHS1      constraint2_7300  1
    RHS1      constraint2_7301  1
    RHS1      constraint2_7302  1
    RHS1      constraint2_7303  1
    RHS1      constraint2_3760  1
    RHS1      constraint2_3761  1
    RHS1      constraint2_3762  1
    RHS1      constraint2_3763  1
    RHS1      constraint2_4840  1
    RHS1      constraint2_4841  1
    RHS1      constraint2_4842  1
    RHS1      constraint2_4843  1
    RHS1      constraint2_1930  1
    RHS1      constraint2_1931  1
    RHS1      constraint2_1932  1
    RHS1      constraint2_1933  1
    RHS1      constraint2_4110  1
    RHS1      constraint2_4111  1
    RHS1      constraint2_4112  1
    RHS1      constraint2_4113  1
    RHS1      constraint2_7090  1
    RHS1      constraint2_7091  1
    RHS1      constraint2_7092  1
    RHS1      constraint2_7093  1
BOUNDS
 UP BND1      Z_158_0_0  1
 UP BND1      Z_158_0_1  1
 UP BND1      Z_158_0_2  1
 UP BND1      Z_158_0_3  1
 UP BND1      Z_158_0_4  1
 UP BND1      Z_146_0_0  1
 UP BND1      Z_146_0_1  1
 UP BND1      Z_146_0_2  1
 UP BND1      Z_146_0_3  1
 UP BND1      Z_146_0_4  1
 UP BND1      Z_730_3_0  1
 UP BND1      Z_730_3_1  1
 UP BND1      Z_730_3_2  1
 UP BND1      Z_730_3_3  1
 UP BND1      Z_730_3_4  1
 UP BND1      Z_730_0_0  1
 UP BND1      Z_730_0_1  1
 UP BND1      Z_730_0_2  1
 UP BND1      Z_730_0_3  1
 UP BND1      Z_730_0_4  1
 UP BND1      Z_730_1_0  1
 UP BND1      Z_730_1_1  1
 UP BND1      Z_730_1_2  1
 UP BND1      Z_730_1_3  1
 UP BND1      Z_730_1_4  1
 UP BND1      Z_730_2_0  1
 UP BND1      Z_730_2_1  1
 UP BND1      Z_730_2_2  1
 UP BND1      Z_730_2_3  1
 UP BND1      Z_730_2_4  1
 UP BND1      Z_730_4_0  1
 UP BND1      Z_730_4_1  1
 UP BND1      Z_730_4_2  1
 UP BND1      Z_730_4_3  1
 UP BND1      Z_730_4_4  1
 UP BND1      Z_484_0_0  1
 UP BND1      Z_484_0_1  1
 UP BND1      Z_484_0_2  1
 UP BND1      Z_484_0_3  1
 UP BND1      Z_484_0_4  1
 UP BND1      Z_484_2_0  1
 UP BND1      Z_484_2_1  1
 UP BND1      Z_484_2_2  1
 UP BND1      Z_484_2_3  1
 UP BND1      Z_484_2_4  1
 UP BND1      Z_411_0_0  1
 UP BND1      Z_411_0_1  1
 UP BND1      Z_411_0_2  1
 UP BND1      Z_411_0_3  1
 UP BND1      Z_411_0_4  1
 UP BND1      Z_411_6_0  1
 UP BND1      Z_411_6_1  1
 UP BND1      Z_411_6_2  1
 UP BND1      Z_411_6_3  1
 UP BND1      Z_411_6_4  1
 UP BND1      Z_411_1_0  1
 UP BND1      Z_411_1_1  1
 UP BND1      Z_411_1_2  1
 UP BND1      Z_411_1_3  1
 UP BND1      Z_411_1_4  1
 UP BND1      Z_709_0_0  1
 UP BND1      Z_709_0_1  1
 UP BND1      Z_709_0_2  1
 UP BND1      Z_709_0_3  1
 UP BND1      Z_709_0_4  1
 UP BND1      Z_709_1_0  1
 UP BND1      Z_709_1_1  1
 UP BND1      Z_709_1_2  1
 UP BND1      Z_709_1_3  1
 UP BND1      Z_709_1_4  1
ENDATA
