ilp_joint/output/chemical change_ilp.sol
# Solution for model chemical change_srl_ilp
# Objective value = 8.8477880819619747e-01
Z_311_0_0 0
Z_311_0_1 0
Z_311_0_2 1
Z_311_0_3 0
Z_311_0_4 0
